Results/Experiment 1 Results/Existing Benchmark/RES_100/i-100-100-14.txt
solutions: 0 nodes: 5  modelTime: 124  solveTime: 31  totalTime: 166  modelSize: 8381  readTime: 11 matchingSize: 0
