Results/Experiment 2 Results/Existing Benchmark/i-100-100-14.lp
clingo version 5.4.0
Reading from tempSRTISolver.lp ...
Solving...
UNSATISFIABLE

Models       : 0
Calls        : 1
Time         : 92.379s (Solving: 13.12s 1st Model: 0.00s Unsat: 13.12s)
CPU Time     : 92.358s
